c instance by G2
c solution = 0001101011001111010000001
c Known solution cost is 1173 
p cnf 25 30
w 33 35 93 46 1 29 91 1 74 8 88 41 35 55 69 88 71 88 27 30 33 59 15 61 2
1 -2 23 0
13 -16 -15 0
10 17 -5 0
-5 -6 3 0
25 4 -19 0
12 23 14 0
3 -13 7 0
-17 -18 -7 0
-8 2 -9 0
-1 -14 -16 0
-24 12 20 0
8 -16 5 0
-6 1 -15 0
15 -13 19 0
-4 -7 -11 0
4 -18 -14 0
17 -20 23 0
-25 3 -12 0
10 23 12 0
2 -23 -25 0
-15 -23 -22 0
-15 -18 25 0
-18 9 -10 0
16 3 -7 0
-19 20 -14 0
-12 -11 -5 0
12 -7 -3 0
-22 -14 24 0
-21 -4 8 0
20 18 -13 0
